# Solution for model r5_t18_m0_1
# Finished Task: 18 / 18
# Makespan: 405.0, Total Distance: 1036.0, Total Time: 0.1897
# R O S F
0 0 11 0.0 0.0
1 1 9 0.0 0.0
2 2 16 0.0 0.0
3 3 22 0.0 0.0
4 4 20 0.0 0.0
5 1 -1 358.0 379.0
6 4 -1 375.0 405.0
7 4 19 250.0 278.0
8 2 10 197.0 228.0
9 1 13 29.0 68.0
10 2 12 268.0 307.0
11 0 15 170.0 208.0
12 2 -1 359.0 395.0
13 1 5 208.0 247.0
14 3 21 185.0 216.0
15 0 -1 338.0 368.0
16 2 8 94.0 122.0
17 4 7 155.0 188.0
18 3 14 142.0 165.0
19 4 6 328.0 361.0
20 4 17 97.0 130.0
21 3 -1 337.0 367.0
22 3 18 97.0 130.0
